
Gurobi 9.0.1 (linux64) logging started Thu Apr 30 16:55:29 2020

Gurobi Optimizer version 9.0.1 build v9.0.1rc0 (linux64)
Optimize a model with 11327 rows, 12060 columns and 198990 nonzeros
Model fingerprint: 0x0f5751f0
Variable types: 0 continuous, 12060 integer (12032 binary)
Coefficient statistics:
  Matrix range     [1e+00, 1e+01]
  Objective range  [2e+00, 1e+02]
  Bounds range     [1e+00, 1e+00]
  RHS range        [1e+00, 1e+00]

User MIP start produced solution with objective 916 (0.24s)
Loaded user MIP start with objective 916

Presolve removed 928 rows and 1887 columns
Presolve time: 2.77s
Presolved: 10399 rows, 10173 columns, 162246 nonzeros
Variable types: 0 continuous, 10173 integer (10147 binary)

Root simplex log...

Iteration    Objective       Primal Inf.    Dual Inf.      Time
    3177    4.5641681e+02   9.383072e+03   0.000000e+00      5s
    6102    4.8382574e+02   2.328692e+03   0.000000e+00     10s
    8052    4.8851965e+02   1.304996e+03   0.000000e+00     15s
    9941    4.8897153e+02   2.231584e+02   0.000000e+00     20s
   11880    4.8917370e+02   1.048420e+03   0.000000e+00     25s
   13554    4.8928304e+02   2.939918e+01   0.000000e+00     30s
   14887    4.8936200e+02   8.950132e+01   0.000000e+00     35s
   16156    4.8938661e+02   0.000000e+00   0.000000e+00     39s

Root relaxation: objective 4.893866e+02, 16156 iterations, 35.49 seconds
Total elapsed time = 40.11s

    Nodes    |    Current Node    |     Objective Bounds      |     Work
 Expl Unexpl |  Obj  Depth IntInf | Incumbent    BestBd   Gap | It/Node Time

     0     0  489.38661    0 3590  916.00000  489.38661  46.6%     -   42s
     0     0  510.88373    0 3493  916.00000  510.88373  44.2%     -  123s
     0     0  513.79870    0 3509  916.00000  513.79870  43.9%     -  151s
     0     0  513.88885    0 3471  916.00000  513.88885  43.9%     -  162s
     0     0  513.88971    0 3444  916.00000  513.88971  43.9%     -  164s
     0     0  518.50234    0 3506  916.00000  518.50234  43.4%     -  275s
     0     0  518.62597    0 3437  916.00000  518.62597  43.4%     -  304s
     0     0  518.62759    0 3457  916.00000  518.62759  43.4%     -  310s
     0     0  524.11500    0 3411  916.00000  524.11500  42.8%     -  583s
     0     0  527.72764    0 3481  916.00000  527.72764  42.4%     -  706s
     0     0  527.80347    0 3423  916.00000  527.80347  42.4%     -  738s
     0     0  527.80592    0 3431  916.00000  527.80592  42.4%     -  744s
     0     0  529.94041    0 3446  916.00000  529.94041  42.1%     -  877s
     0     0  530.15995    0 3437  916.00000  530.15995  42.1%     -  954s
     0     0  530.17289    0 3461  916.00000  530.17289  42.1%     -  981s
     0     0  532.26183    0 3476  916.00000  532.26183  41.9%     - 1208s
     0     0  532.53805    0 3470  916.00000  532.53805  41.9%     - 1275s
     0     0  532.55061    0 3485  916.00000  532.55061  41.9%     - 1297s
     0     0  533.92753    0 3460  916.00000  533.92753  41.7%     - 1487s
     0     0  534.08527    0 3458  916.00000  534.08527  41.7%     - 1558s
     0     0  534.10736    0 3457  916.00000  534.10736  41.7%     - 1585s
     0     0  534.11212    0 3457  916.00000  534.11212  41.7%     - 1602s
     0     0  534.89198    0 3522  916.00000  534.89198  41.6%     - 1939s
     0     0  534.92735    0 3527  916.00000  534.92735  41.6%     - 1980s
     0     0  534.93966    0 3527  916.00000  534.93966  41.6%     - 2015s
     0     0  535.54806    0 3508  916.00000  535.54806  41.5%     - 2188s
     0     0  535.63089    0 3523  916.00000  535.63089  41.5%     - 2259s
     0     0  535.64058    0 3552  916.00000  535.64058  41.5%     - 2280s
     0     0  536.16002    0 3574  916.00000  536.16002  41.5%     - 2474s
     0     0  536.20386    0 3553  916.00000  536.20386  41.5%     - 2533s
     0     0  536.21567    0 3549  916.00000  536.21567  41.5%     - 2571s
     0     0  536.88215    0 3629  916.00000  536.88215  41.4%     - 2716s
     0     0  537.03468    0 3602  916.00000  537.03468  41.4%     - 2768s
     0     0  537.04721    0 3608  916.00000  537.04721  41.4%     - 2790s
     0     0  537.67965    0 3540  916.00000  537.67965  41.3%     - 2890s
     0     0  537.90011    0 3545  916.00000  537.90011  41.3%     - 2950s
     0     0  537.93299    0 3544  916.00000  537.93299  41.3%     - 2991s
     0     0  537.94588    0 3548  916.00000  537.94588  41.3%     - 3014s
     0     0  538.17671    0 3502  916.00000  538.17671  41.2%     - 3121s
     0     0  538.19540    0 3509  916.00000  538.19540  41.2%     - 3167s
     0     0  538.50331    0 3513  916.00000  538.50331  41.2%     - 3327s
     0     0  538.56552    0 3503  916.00000  538.56552  41.2%     - 3377s
     0     0  538.57974    0 3505  916.00000  538.57974  41.2%     - 3390s
     0     0  539.14442    0 3483  916.00000  539.14442  41.1%     - 3484s
     0     0  539.18190    0 3537  916.00000  539.18190  41.1%     - 3542s
     0     0  539.18888    0 3550  916.00000  539.18888  41.1%     - 3563s
     0     0          -    0       916.00000  539.18888  41.1%     - 3600s

Cutting planes:
  Gomory: 1
  MIR: 107
  Zero half: 68
  RLT: 2854

Explored 1 nodes (616912 simplex iterations) in 3600.01 seconds
Thread count was 1 (of 40 available processors)

Solution count 1: 916 

Time limit reached
Best objective 9.160000000000e+02, best bound 5.400000000000e+02, gap 41.0480%

User-callback calls 6789, time in user-callback 0.02 sec
